amountOfEmployees = 100;
horizonLength = 7;
amountOfShifts = 4;

shiftsPerDay = [|16,18,7,0,
|18,16,7,0,
|15,6,18,0,
|11,8,20,0,
|17,17,7,0,
|19,15,7,0,
|1,1,0,0,
|];

preferences = array3d(1..100,1..7,1..4,[2,3,2,2,3,4,4,4,2,3,2,2,3,4,4,4,3,4,4,4,2,3,2,2,2,3,2,2,1,1,1,1,1,4,4,4,1,1,1,1,1,4,4,4,1,4,4,4,1,1,1,1,1,1,1,1,2,1,2,2,4,4,4,4,2,1,2,2,4,4,4,4,4,4,4,4,2,1,2,2,2,1,2,2,1,1,1,1,4,1,1,1,1,1,1,1,4,1,1,1,4,1,1,1,1,1,1,1,1,1,1,1,3,4,3,3,4,4,4,4,3,4,3,3,4,4,4,4,4,4,4,4,3,4,3,3,3,4,3,3,4,3,4,4,4,4,4,4,4,3,4,4,4,4,4,4,4,4,4,4,4,3,4,4,4,3,4,4,1,1,1,1,4,3,3,3,1,1,1,1,4,3,3,3,4,3,3,3,1,1,1,1,1,1,1,1,4,3,4,4,2,4,4,4,4,3,4,4,2,4,4,4,2,4,4,4,4,3,4,4,4,3,4,4,4,1,4,4,1,2,2,2,4,1,4,4,1,2,2,2,1,2,2,2,4,1,4,4,4,1,4,4,3,4,3,3,4,1,1,1,3,4,3,3,4,1,1,1,4,1,1,1,3,4,3,3,3,4,3,3,4,4,4,4,1,4,4,4,4,4,4,4,1,4,4,4,1,4,4,4,4,4,4,4,4,4,4,4,4,1,4,4,4,3,3,3,4,1,4,4,4,3,3,3,4,3,3,3,4,1,4,4,4,1,4,4,2,1,2,2,2,4,4,4,2,1,2,2,2,4,4,4,2,4,4,4,2,1,2,2,2,1,2,2,1,4,1,1,2,1,1,1,1,4,1,1,2,1,1,1,2,1,1,1,1,4,1,1,1,4,1,1,1,1,1,1,1,3,3,3,1,1,1,1,1,3,3,3,1,3,3,3,1,1,1,1,1,1,1,1,2,3,2,2,4,4,4,4,2,3,2,2,4,4,4,4,4,4,4,4,2,3,2,2,2,3,2,2,2,4,2,2,3,2,2,2,2,4,2,2,3,2,2,2,3,2,2,2,2,4,2,2,2,4,2,2,2,4,2,2,2,1,1,1,2,4,2,2,2,1,1,1,2,1,1,1,2,4,2,2,2,4,2,2,1,1,1,1,2,1,1,1,1,1,1,1,2,1,1,1,2,1,1,1,1,1,1,1,1,1,1,1,2,3,2,2,3,1,1,1,2,3,2,2,3,1,1,1,3,1,1,1,2,3,2,2,2,3,2,2,4,1,4,4,3,4,4,4,4,1,4,4,3,4,4,4,3,4,4,4,4,1,4,4,4,1,4,4,2,4,2,2,1,2,2,2,2,4,2,2,1,2,2,2,1,2,2,2,2,4,2,2,2,4,2,2,2,1,2,2,2,2,2,2,2,1,2,2,2,2,2,2,2,2,2,2,2,1,2,2,2,1,2,2,1,4,1,1,2,1,1,1,1,4,1,1,2,1,1,1,2,1,1,1,1,4,1,1,1,4,1,1,2,4,2,2,2,1,1,1,2,4,2,2,2,1,1,1,2,1,1,1,2,4,2,2,2,4,2,2,1,4,1,1,3,4,4,4,1,4,1,1,3,4,4,4,3,4,4,4,1,4,1,1,1,4,1,1,4,4,4,4,2,4,4,4,4,4,4,4,2,4,4,4,2,4,4,4,4,4,4,4,4,4,4,4,4,3,4,4,1,4,4,4,4,3,4,4,1,4,4,4,1,4,4,4,4,3,4,4,4,3,4,4,1,4,1,1,3,1,1,1,1,4,1,1,3,1,1,1,3,1,1,1,1,4,1,1,1,4,1,1,4,1,4,4,4,1,1,1,4,1,4,4,4,1,1,1,4,1,1,1,4,1,4,4,4,1,4,4,2,2,2,2,2,4,4,4,2,2,2,2,2,4,4,4,2,4,4,4,2,2,2,2,2,2,2,2,4,4,4,4,2,3,3,3,4,4,4,4,2,3,3,3,2,3,3,3,4,4,4,4,4,4,4,4,4,2,4,4,3,1,1,1,4,2,4,4,3,1,1,1,3,1,1,1,4,2,4,4,4,2,4,4,1,4,1,1,1,2,2,2,1,4,1,1,1,2,2,2,1,2,2,2,1,4,1,1,1,4,1,1,1,1,1,1,3,4,4,4,1,1,1,1,3,4,4,4,3,4,4,4,1,1,1,1,1,1,1,1,2,1,2,2,4,3,3,3,2,1,2,2,4,3,3,3,4,3,3,3,2,1,2,2,2,1,2,2,2,1,2,2,2,1,1,1,2,1,2,2,2,1,1,1,2,1,1,1,2,1,2,2,2,1,2,2,2,4,2,2,3,4,4,4,2,4,2,2,3,4,4,4,3,4,4,4,2,4,2,2,2,4,2,2,1,2,1,1,2,1,1,1,1,2,1,1,2,1,1,1,2,1,1,1,1,2,1,1,1,2,1,1,2,1,2,2,3,2,2,2,2,1,2,2,3,2,2,2,3,2,2,2,2,1,2,2,2,1,2,2,4,1,4,4,4,4,4,4,4,1,4,4,4,4,4,4,4,4,4,4,4,1,4,4,4,1,4,4,4,2,4,4,4,3,3,3,4,2,4,4,4,3,3,3,4,3,3,3,4,2,4,4,4,2,4,4,3,1,3,3,2,3,3,3,3,1,3,3,2,3,3,3,2,3,3,3,3,1,3,3,3,1,3,3,4,3,4,4,2,4,4,4,4,3,4,4,2,4,4,4,2,4,4,4,4,3,4,4,4,3,4,4,4,2,4,4,2,3,3,3,4,2,4,4,2,3,3,3,2,3,3,3,4,2,4,4,4,2,4,4,4,3,4,4,4,3,3,3,4,3,4,4,4,3,3,3,4,3,3,3,4,3,4,4,4,3,4,4,4,1,4,4,2,4,4,4,4,1,4,4,2,4,4,4,2,4,4,4,4,1,4,4,4,1,4,4,4,3,4,4,4,1,1,1,4,3,4,4,4,1,1,1,4,1,1,1,4,3,4,4,4,3,4,4,1,4,1,1,4,4,4,4,1,4,1,1,4,4,4,4,4,4,4,4,1,4,1,1,1,4,1,1,2,1,2,2,1,2,2,2,2,1,2,2,1,2,2,2,1,2,2,2,2,1,2,2,2,1,2,2,2,3,2,2,2,3,3,3,2,3,2,2,2,3,3,3,2,3,3,3,2,3,2,2,2,3,2,2,4,2,4,4,1,1,1,1,4,2,4,4,1,1,1,1,1,1,1,1,4,2,4,4,4,2,4,4,1,1,1,1,2,1,1,1,1,1,1,1,2,1,1,1,2,1,1,1,1,1,1,1,1,1,1,1,2,1,2,2,1,1,1,1,2,1,2,2,1,1,1,1,1,1,1,1,2,1,2,2,2,1,2,2,1,1,1,1,3,4,4,4,1,1,1,1,3,4,4,4,3,4,4,4,1,1,1,1,1,1,1,1,3,4,3,3,4,1,1,1,3,4,3,3,4,1,1,1,4,1,1,1,3,4,3,3,3,4,3,3,4,2,4,4,2,1,1,1,4,2,4,4,2,1,1,1,2,1,1,1,4,2,4,4,4,2,4,4,2,3,2,2,1,4,4,4,2,3,2,2,1,4,4,4,1,4,4,4,2,3,2,2,2,3,2,2,2,1,2,2,2,4,4,4,2,1,2,2,2,4,4,4,2,4,4,4,2,1,2,2,2,1,2,2,4,1,4,4,2,3,3,3,4,1,4,4,2,3,3,3,2,3,3,3,4,1,4,4,4,1,4,4,4,2,4,4,2,1,1,1,4,2,4,4,2,1,1,1,2,1,1,1,4,2,4,4,4,2,4,4,1,1,1,1,4,4,4,4,1,1,1,1,4,4,4,4,4,4,4,4,1,1,1,1,1,1,1,1,2,4,2,2,2,1,1,1,2,4,2,2,2,1,1,1,2,1,1,1,2,4,2,2,2,4,2,2,2,2,2,2,1,3,3,3,2,2,2,2,1,3,3,3,1,3,3,3,2,2,2,2,2,2,2,2,4,4,4,4,4,3,3,3,4,4,4,4,4,3,3,3,4,3,3,3,4,4,4,4,4,4,4,4,1,1,1,1,2,1,1,1,1,1,1,1,2,1,1,1,2,1,1,1,1,1,1,1,1,1,1,1,2,1,2,2,1,1,1,1,2,1,2,2,1,1,1,1,1,1,1,1,2,1,2,2,2,1,2,2,2,4,2,2,1,1,1,1,2,4,2,2,1,1,1,1,1,1,1,1,2,4,2,2,2,4,2,2,4,3,4,4,2,4,4,4,4,3,4,4,2,4,4,4,2,4,4,4,4,3,4,4,4,3,4,4,4,4,4,4,2,3,3,3,4,4,4,4,2,3,3,3,2,3,3,3,4,4,4,4,4,4,4,4,1,1,1,1,4,4,4,4,1,1,1,1,4,4,4,4,4,4,4,4,1,1,1,1,1,1,1,1,1,4,1,1,4,2,2,2,1,4,1,1,4,2,2,2,4,2,2,2,1,4,1,1,1,4,1,1,4,4,4,4,4,4,4,4,4,4,4,4,4,4,4,4,4,4,4,4,4,4,4,4,4,4,4,4,1,3,1,1,4,4,4,4,1,3,1,1,4,4,4,4,4,4,4,4,1,3,1,1,1,3,1,1,4,2,4,4,4,4,4,4,4,2,4,4,4,4,4,4,4,4,4,4,4,2,4,4,4,2,4,4,4,4,4,4,4,2,2,2,4,4,4,4,4,2,2,2,4,2,2,2,4,4,4,4,4,4,4,4,3,4,3,3,4,4,4,4,3,4,3,3,4,4,4,4,4,4,4,4,3,4,3,3,3,4,3,3,2,3,2,2,4,3,3,3,2,3,2,2,4,3,3,3,4,3,3,3,2,3,2,2,2,3,2,2,1,2,1,1,3,3,3,3,1,2,1,1,3,3,3,3,3,3,3,3,1,2,1,1,1,2,1,1,1,2,1,1,2,2,2,2,1,2,1,1,2,2,2,2,2,2,2,2,1,2,1,1,1,2,1,1,2,4,2,2,4,2,2,2,2,4,2,2,4,2,2,2,4,2,2,2,2,4,2,2,2,4,2,2,2,4,2,2,1,4,4,4,2,4,2,2,1,4,4,4,1,4,4,4,2,4,2,2,2,4,2,2,4,1,4,4,4,1,1,1,4,1,4,4,4,1,1,1,4,1,1,1,4,1,4,4,4,1,4,4,2,1,2,2,2,2,2,2,2,1,2,2,2,2,2,2,2,2,2,2,2,1,2,2,2,1,2,2,1,4,1,1,1,4,4,4,1,4,1,1,1,4,4,4,1,4,4,4,1,4,1,1,1,4,1,1,1,1,1,1,4,4,4,4,1,1,1,1,4,4,4,4,4,4,4,4,1,1,1,1,1,1,1,1,4,3,4,4,2,2,2,2,4,3,4,4,2,2,2,2,2,2,2,2,4,3,4,4,4,3,4,4,1,1,1,1,1,1,1,1,1,1,1,1,1,1,1,1,1,1,1,1,1,1,1,1,1,1,1,1,4,4,4,4,2,1,1,1,4,4,4,4,2,1,1,1,2,1,1,1,4,4,4,4,4,4,4,4,1,2,1,1,3,4,4,4,1,2,1,1,3,4,4,4,3,4,4,4,1,2,1,1,1,2,1,1,1,3,1,1,4,1,1,1,1,3,1,1,4,1,1,1,4,1,1,1,1,3,1,1,1,3,1,1,2,4,2,2,4,1,1,1,2,4,2,2,4,1,1,1,4,1,1,1,2,4,2,2,2,4,2,2,2,1,2,2,1,1,1,1,2,1,2,2,1,1,1,1,1,1,1,1,2,1,2,2,2,1,2,2,4,3,4,4,2,1,1,1,4,3,4,4,2,1,1,1,2,1,1,1,4,3,4,4,4,3,4,4,1,4,1,1,2,2,2,2,1,4,1,1,2,2,2,2,2,2,2,2,1,4,1,1,1,4,1,1,2,2,2,2,2,1,1,1,2,2,2,2,2,1,1,1,2,1,1,1,2,2,2,2,2,2,2,2,3,4,3,3,2,4,4,4,3,4,3,3,2,4,4,4,2,4,4,4,3,4,3,3,3,4,3,3,1,4,1,1,2,1,1,1,1,4,1,1,2,1,1,1,2,1,1,1,1,4,1,1,1,4,1,1,4,4,4,4,4,2,2,2,4,4,4,4,4,2,2,2,4,2,2,2,4,4,4,4,4,4,4,4,1,4,1,1,4,1,1,1,1,4,1,1,4,1,1,1,4,1,1,1,1,4,1,1,1,4,1,1,]);

minShifts = 4;
maxShifts = 6;
minConsecShifts = 1;
maxConsecShifts = 7;

minConsecSameShifts = [1,1,1,1];
maxConsecSameShifts = [7,7,7,7];

minPerShifts = [0,0,0,0];
maxPerShifts = [7,7,7,7];